p edge 500 1606
e 1 2 1
e 1 500 1
e 1 3 1
e 1 499 1
e 1 125 1
e 1 301 1
e 1 16 1
e 1 176 1
e 1 173 1
e 1 198 1
e 2 3 1
e 2 4 1
e 2 500 1
e 2 223 1
e 2 431 1
e 3 4 1
e 3 5 1
e 3 440 1
e 3 146 1
e 3 177 1
e 3 241 1
e 3 463 1
e 4 5 1
e 4 6 1
e 4 419 1
e 4 347 1
e 4 100 1
e 5 6 1
e 5 7 1
e 5 226 1
e 6 7 1
e 6 8 1
e 6 442 1
e 6 65 1
e 7 8 1
e 7 9 1
e 7 267 1
e 7 139 1
e 7 488 1
e 8 9 1
e 8 10 1
e 8 215 1
e 8 309 1
e 9 10 1
e 9 11 1
e 9 218 1
e 10 11 1
e 10 12 1
e 10 389 1
e 11 12 1
e 11 13 1
e 11 467 1
e 12 13 1
e 12 14 1
e 12 225 1
e 12 25 1
e 12 31 1
e 12 404 1
e 13 14 1
e 13 15 1
e 13 246 1
e 13 184 1
e 13 351 1
e 13 455 1
e 14 15 1
e 14 16 1
e 14 144 1
e 14 138 1
e 15 16 1
e 15 17 1
e 15 239 1
e 15 114 1
e 16 17 1
e 16 18 1
e 16 368 1
e 16 92 1
e 16 119 1
e 16 421 1
e 17 18 1
e 17 19 1
e 17 359 1
e 17 64 1
e 17 85 1
e 17 88 1
e 18 19 1
e 18 20 1
e 18 385 1
e 19 20 1
e 19 21 1
e 19 248 1
e 19 95 1
e 19 186 1
e 20 21 1
e 20 22 1
e 20 258 1
e 20 116 1
e 20 371 1
e 21 22 1
e 21 23 1
e 21 294 1
e 21 81 1
e 21 254 1
e 22 23 1
e 22 24 1
e 22 260 1
e 22 456 1
e 22 107 1
e 22 121 1
e 22 171 1
e 23 24 1
e 23 25 1
e 23 298 1
e 24 25 1
e 24 26 1
e 24 151 1
e 24 397 1
e 25 26 1
e 25 27 1
e 25 437 1
e 25 273 1
e 26 27 1
e 26 28 1
e 26 156 1
e 26 140 1
e 26 284 1
e 27 28 1
e 27 29 1
e 27 226 1
e 28 29 1
e 28 30 1
e 28 413 1
e 28 420 1
e 29 30 1
e 29 31 1
e 29 289 1
e 29 349 1
e 29 108 1
e 30 31 1
e 30 32 1
e 30 255 1
e 31 32 1
e 31 33 1
e 31 206 1
e 31 409 1
e 31 487 1
e 32 33 1
e 32 34 1
e 32 125 1
e 32 377 1
e 32 407 1
e 33 34 1
e 33 35 1
e 33 338 1
e 33 249 1
e 33 239 1
e 33 300 1
e 33 361 1
e 34 35 1
e 34 36 1
e 34 486 1
e 34 303 1
e 34 274 1
e 34 319 1
e 35 36 1
e 35 37 1
e 35 214 1
e 35 139 1
e 35 150 1
e 36 37 1
e 36 38 1
e 36 349 1
e 37 38 1
e 37 39 1
e 37 186 1
e 37 273 1
e 38 39 1
e 38 40 1
e 38 114 1
e 38 488 1
e 39 40 1
e 39 41 1
e 39 49 1
e 40 41 1
e 40 42 1
e 40 273 1
e 40 469 1
e 41 42 1
e 41 43 1
e 41 50 1
e 41 144 1
e 41 441 1
e 41 483 1
e 42 43 1
e 42 44 1
e 42 448 1
e 42 413 1
e 42 473 1
e 43 44 1
e 43 45 1
e 43 162 1
e 43 276 1
e 43 387 1
e 44 45 1
e 44 46 1
e 44 477 1
e 44 164 1
e 44 290 1
e 45 46 1
e 45 47 1
e 45 192 1
e 46 47 1
e 46 48 1
e 46 52 1
e 46 181 1
e 46 366 1
e 46 444 1
e 47 48 1
e 47 49 1
e 47 256 1
e 47 495 1
e 48 49 1
e 48 50 1
e 48 437 1
e 48 391 1
e 49 50 1
e 49 51 1
e 49 474 1
e 50 51 1
e 50 52 1
e 50 412 1
e 50 300 1
e 51 52 1
e 51 53 1
e 51 310 1
e 52 53 1
e 52 54 1
e 52 123 1
e 52 331 1
e 52 460 1
e 53 54 1
e 53 55 1
e 53 71 1
e 53 209 1
e 53 405 1
e 53 413 1
e 54 55 1
e 54 56 1
e 54 156 1
e 54 194 1
e 54 234 1
e 54 308 1
e 55 56 1
e 55 57 1
e 55 202 1
e 56 57 1
e 56 58 1
e 56 393 1
e 57 58 1
e 57 59 1
e 57 73 1
e 57 305 1
e 57 310 1
e 58 59 1
e 58 60 1
e 58 125 1
e 58 375 1
e 58 489 1
e 59 60 1
e 59 61 1
e 59 180 1
e 59 364 1
e 59 432 1
e 59 479 1
e 60 61 1
e 60 62 1
e 60 477 1
e 60 240 1
e 61 62 1
e 61 63 1
e 61 446 1
e 61 228 1
e 62 63 1
e 62 64 1
e 62 341 1
e 62 101 1
e 63 64 1
e 63 65 1
e 63 313 1
e 64 65 1
e 64 66 1
e 64 135 1
e 64 301 1
e 64 476 1
e 65 66 1
e 65 67 1
e 65 463 1
e 66 67 1
e 66 68 1
e 66 450 1
e 67 68 1
e 67 69 1
e 68 69 1
e 68 70 1
e 68 178 1
e 68 409 1
e 69 70 1
e 69 71 1
e 69 392 1
e 69 241 1
e 70 71 1
e 70 72 1
e 70 361 1
e 70 97 1
e 70 120 1
e 70 326 1
e 71 72 1
e 71 73 1
e 71 172 1
e 71 101 1
e 71 223 1
e 72 73 1
e 72 74 1
e 72 133 1
e 72 404 1
e 73 74 1
e 73 75 1
e 73 182 1
e 74 75 1
e 74 76 1
e 74 193 1
e 75 76 1
e 75 77 1
e 75 487 1
e 75 143 1
e 76 77 1
e 76 78 1
e 76 359 1
e 77 78 1
e 77 79 1
e 77 215 1
e 78 79 1
e 78 80 1
e 79 80 1
e 79 81 1
e 79 373 1
e 79 403 1
e 80 81 1
e 80 82 1
e 80 173 1
e 80 194 1
e 80 282 1
e 80 365 1
e 80 461 1
e 81 82 1
e 81 83 1
e 81 317 1
e 81 483 1
e 82 83 1
e 82 84 1
e 82 482 1
e 83 84 1
e 83 85 1
e 83 315 1
e 83 244 1
e 83 304 1
e 84 85 1
e 84 86 1
e 84 251 1
e 84 150 1
e 85 86 1
e 85 87 1
e 85 114 1
e 85 164 1
e 85 179 1
e 85 205 1
e 85 343 1
e 86 87 1
e 86 88 1
e 86 286 1
e 86 464 1
e 87 88 1
e 87 89 1
e 87 263 1
e 87 437 1
e 88 89 1
e 88 90 1
e 88 210 1
e 89 90 1
e 89 91 1
e 89 95 1
e 89 237 1
e 89 473 1
e 90 91 1
e 90 92 1
e 90 447 1
e 91 92 1
e 91 93 1
e 91 382 1
e 91 327 1
e 92 93 1
e 92 94 1
e 92 238 1
e 93 94 1
e 93 95 1
e 93 158 1
e 93 302 1
e 93 347 1
e 94 95 1
e 94 96 1
e 94 218 1
e 95 96 1
e 95 97 1
e 95 345 1
e 95 321 1
e 95 347 1
e 96 97 1
e 96 98 1
e 96 237 1
e 96 298 1
e 97 98 1
e 97 99 1
e 97 378 1
e 98 99 1
e 98 100 1
e 98 333 1
e 98 207 1
e 98 350 1
e 99 100 1
e 99 101 1
e 99 355 1
e 100 101 1
e 100 102 1
e 100 436 1
e 100 406 1
e 100 467 1
e 101 102 1
e 101 103 1
e 101 484 1
e 102 103 1
e 102 104 1
e 102 270 1
e 102 395 1
e 102 257 1
e 102 295 1
e 103 104 1
e 103 105 1
e 103 111 1
e 103 393 1
e 104 105 1
e 104 106 1
e 104 245 1
e 104 441 1
e 104 340 1
e 105 106 1
e 105 107 1
e 105 438 1
e 105 417 1
e 106 107 1
e 106 108 1
e 106 370 1
e 106 322 1
e 106 375 1
e 106 453 1
e 106 478 1
e 107 108 1
e 107 109 1
e 107 132 1
e 107 348 1
e 107 363 1
e 108 109 1
e 108 110 1
e 108 360 1
e 108 419 1
e 109 110 1
e 109 111 1
e 110 111 1
e 110 112 1
e 111 112 1
e 111 113 1
e 111 388 1
e 111 262 1
e 112 113 1
e 112 114 1
e 113 114 1
e 113 115 1
e 113 309 1
e 113 175 1
e 113 262 1
e 114 115 1
e 114 116 1
e 115 116 1
e 115 117 1
e 115 430 1
e 115 267 1
e 115 456 1
e 116 117 1
e 116 118 1
e 116 218 1
e 117 118 1
e 117 119 1
e 117 138 1
e 117 374 1
e 117 233 1
e 118 119 1
e 118 120 1
e 118 484 1
e 119 120 1
e 119 121 1
e 119 187 1
e 119 289 1
e 119 305 1
e 120 121 1
e 120 122 1
e 120 302 1
e 121 122 1
e 121 123 1
e 122 123 1
e 122 124 1
e 122 427 1
e 122 151 1
e 122 206 1
e 122 435 1
e 122 496 1
e 123 124 1
e 123 125 1
e 123 489 1
e 124 125 1
e 124 126 1
e 124 226 1
e 125 126 1
e 125 127 1
e 125 304 1
e 125 230 1
e 125 321 1
e 125 334 1
e 125 453 1
e 126 127 1
e 126 128 1
e 127 128 1
e 127 129 1
e 127 440 1
e 127 216 1
e 128 129 1
e 128 130 1
e 128 428 1
e 129 130 1
e 129 131 1
e 130 131 1
e 130 132 1
e 130 300 1
e 130 434 1
e 130 339 1
e 131 132 1
e 131 133 1
e 131 149 1
e 131 490 1
e 132 133 1
e 132 134 1
e 132 236 1
e 133 134 1
e 133 135 1
e 133 142 1
e 133 407 1
e 134 135 1
e 134 136 1
e 134 204 1
e 135 136 1
e 135 137 1
e 135 266 1
e 135 356 1
e 136 137 1
e 136 138 1
e 136 387 1
e 136 462 1
e 137 138 1
e 137 139 1
e 138 139 1
e 138 140 1
e 138 242 1
e 138 289 1
e 138 413 1
e 139 140 1
e 139 141 1
e 139 246 1
e 140 141 1
e 140 142 1
e 141 142 1
e 141 143 1
e 141 193 1
e 142 143 1
e 142 144 1
e 142 294 1
e 142 398 1
e 143 144 1
e 143 145 1
e 143 446 1
e 143 467 1
e 144 145 1
e 144 146 1
e 144 175 1
e 144 206 1
e 144 427 1
e 145 146 1
e 145 147 1
e 145 467 1
e 146 147 1
e 146 148 1
e 146 347 1
e 147 148 1
e 147 149 1
e 147 344 1
e 147 358 1
e 147 428 1
e 148 149 1
e 148 150 1
e 148 287 1
e 148 219 1
e 149 150 1
e 149 151 1
e 149 415 1
e 149 306 1
e 150 151 1
e 150 152 1
e 150 324 1
e 150 429 1
e 151 152 1
e 151 153 1
e 151 181 1
e 151 367 1
e 152 153 1
e 152 154 1
e 152 317 1
e 152 178 1
e 153 154 1
e 153 155 1
e 153 216 1
e 153 436 1
e 153 369 1
e 154 155 1
e 154 156 1
e 154 228 1
e 154 284 1
e 155 156 1
e 155 157 1
e 155 172 1
e 156 157 1
e 156 158 1
e 156 296 1
e 156 341 1
e 157 158 1
e 157 159 1
e 157 206 1
e 158 159 1
e 158 160 1
e 158 398 1
e 158 457 1
e 159 160 1
e 159 161 1
e 159 240 1
e 159 474 1
e 159 373 1
e 160 161 1
e 160 162 1
e 161 162 1
e 161 163 1
e 161 184 1
e 161 419 1
e 161 370 1
e 162 163 1
e 162 164 1
e 162 264 1
e 163 164 1
e 163 165 1
e 163 460 1
e 164 165 1
e 164 166 1
e 164 265 1
e 165 166 1
e 165 167 1
e 165 340 1
e 165 459 1
e 166 167 1
e 166 168 1
e 166 234 1
e 167 168 1
e 167 169 1
e 167 341 1
e 168 169 1
e 168 170 1
e 168 277 1
e 168 175 1
e 168 382 1
e 169 170 1
e 169 171 1
e 169 214 1
e 170 171 1
e 170 172 1
e 170 396 1
e 170 335 1
e 171 172 1
e 171 173 1
e 171 383 1
e 172 173 1
e 172 174 1
e 172 483 1
e 172 430 1
e 173 174 1
e 173 175 1
e 174 175 1
e 174 176 1
e 174 350 1
e 174 292 1
e 174 497 1
e 175 176 1
e 175 177 1
e 175 366 1
e 175 401 1
e 176 177 1
e 176 178 1
e 176 479 1
e 176 353 1
e 177 178 1
e 177 179 1
e 178 179 1
e 178 180 1
e 178 385 1
e 178 374 1
e 178 402 1
e 179 180 1
e 179 181 1
e 179 308 1
e 179 232 1
e 179 387 1
e 179 431 1
e 180 181 1
e 180 182 1
e 181 182 1
e 181 183 1
e 181 211 1
e 182 183 1
e 182 184 1
e 182 233 1
e 182 383 1
e 183 184 1
e 183 185 1
e 183 333 1
e 184 185 1
e 184 186 1
e 184 441 1
e 185 186 1
e 185 187 1
e 186 187 1
e 186 188 1
e 186 289 1
e 186 339 1
e 187 188 1
e 187 189 1
e 187 217 1
e 187 475 1
e 188 189 1
e 188 190 1
e 188 255 1
e 189 190 1
e 189 191 1
e 190 191 1
e 190 192 1
e 190 406 1
e 190 315 1
e 190 479 1
e 191 192 1
e 191 193 1
e 191 216 1
e 191 271 1
e 192 193 1
e 192 194 1
e 192 280 1
e 192 424 1
e 193 194 1
e 193 195 1
e 193 211 1
e 193 208 1
e 194 195 1
e 194 196 1
e 194 425 1
e 194 263 1
e 194 458 1
e 195 196 1
e 195 197 1
e 195 357 1
e 195 314 1
e 196 197 1
e 196 198 1
e 197 198 1
e 197 199 1
e 197 500 1
e 197 472 1
e 198 199 1
e 198 200 1
e 198 219 1
e 198 267 1
e 199 200 1
e 199 201 1
e 199 332 1
e 200 201 1
e 200 202 1
e 200 475 1
e 201 202 1
e 201 203 1
e 201 236 1
e 201 300 1
e 202 203 1
e 202 204 1
e 203 204 1
e 203 205 1
e 203 283 1
e 203 392 1
e 204 205 1
e 204 206 1
e 204 426 1
e 205 206 1
e 205 207 1
e 205 218 1
e 205 314 1
e 205 494 1
e 206 207 1
e 206 208 1
e 206 244 1
e 207 208 1
e 207 209 1
e 207 344 1
e 208 209 1
e 208 210 1
e 208 309 1
e 209 210 1
e 209 211 1
e 209 389 1
e 210 211 1
e 210 212 1
e 210 306 1
e 210 221 1
e 211 212 1
e 211 213 1
e 212 213 1
e 212 214 1
e 212 258 1
e 213 214 1
e 213 215 1
e 213 418 1
e 214 215 1
e 214 216 1
e 214 424 1
e 214 248 1
e 214 264 1
e 215 216 1
e 215 217 1
e 216 217 1
e 216 218 1
e 216 450 1
e 216 480 1
e 217 218 1
e 217 219 1
e 217 284 1
e 217 488 1
e 218 219 1
e 218 220 1
e 219 220 1
e 219 221 1
e 220 221 1
e 220 222 1
e 220 286 1
e 221 222 1
e 221 223 1
e 221 459 1
e 221 387 1
e 221 278 1
e 222 223 1
e 222 224 1
e 222 297 1
e 223 224 1
e 223 225 1
e 223 380 1
e 223 464 1
e 224 225 1
e 224 226 1
e 224 310 1
e 224 444 1
e 224 446 1
e 225 226 1
e 225 227 1
e 225 490 1
e 225 380 1
e 225 303 1
e 226 227 1
e 226 228 1
e 226 320 1
e 226 451 1
e 227 228 1
e 227 229 1
e 227 446 1
e 227 489 1
e 228 229 1
e 228 230 1
e 229 230 1
e 229 231 1
e 229 373 1
e 229 491 1
e 230 231 1
e 230 232 1
e 231 232 1
e 231 233 1
e 231 319 1
e 232 233 1
e 232 234 1
e 232 318 1
e 233 234 1
e 233 235 1
e 233 385 1
e 234 235 1
e 234 236 1
e 235 236 1
e 235 237 1
e 235 326 1
e 235 463 1
e 236 237 1
e 236 238 1
e 236 328 1
e 237 238 1
e 237 239 1
e 238 239 1
e 238 240 1
e 239 240 1
e 239 241 1
e 239 324 1
e 240 241 1
e 240 242 1
e 241 242 1
e 241 243 1
e 242 243 1
e 242 244 1
e 242 350 1
e 243 244 1
e 243 245 1
e 243 307 1
e 244 245 1
e 244 246 1
e 245 246 1
e 245 247 1
e 245 494 1
e 245 485 1
e 246 247 1
e 246 248 1
e 246 328 1
e 246 406 1
e 247 248 1
e 247 249 1
e 247 333 1
e 247 250 1
e 248 249 1
e 248 250 1
e 249 250 1
e 249 251 1
e 249 491 1
e 250 251 1
e 250 252 1
e 250 383 1
e 250 386 1
e 251 252 1
e 251 253 1
e 251 306 1
e 251 468 1
e 252 253 1
e 252 254 1
e 252 363 1
e 253 254 1
e 253 255 1
e 253 420 1
e 254 255 1
e 254 256 1
e 254 331 1
e 255 256 1
e 255 257 1
e 256 257 1
e 256 258 1
e 257 258 1
e 257 259 1
e 257 492 1
e 257 493 1
e 258 259 1
e 258 260 1
e 258 397 1
e 258 296 1
e 259 260 1
e 259 261 1
e 259 277 1
e 260 261 1
e 260 262 1
e 260 368 1
e 261 262 1
e 261 263 1
e 262 263 1
e 262 264 1
e 262 317 1
e 262 316 1
e 263 264 1
e 263 265 1
e 264 265 1
e 264 266 1
e 265 266 1
e 265 267 1
e 265 401 1
e 266 267 1
e 266 268 1
e 266 272 1
e 266 320 1
e 266 402 1
e 266 422 1
e 267 268 1
e 267 269 1
e 267 290 1
e 267 357 1
e 267 401 1
e 268 269 1
e 268 270 1
e 268 341 1
e 268 375 1
e 268 287 1
e 269 270 1
e 269 271 1
e 269 304 1
e 270 271 1
e 270 272 1
e 270 433 1
e 270 288 1
e 271 272 1
e 271 273 1
e 272 273 1
e 272 274 1
e 272 397 1
e 272 356 1
e 272 285 1
e 272 481 1
e 273 274 1
e 273 275 1
e 273 311 1
e 274 275 1
e 274 276 1
e 274 500 1
e 275 276 1
e 275 277 1
e 275 466 1
e 276 277 1
e 276 278 1
e 277 278 1
e 277 279 1
e 277 457 1
e 278 279 1
e 278 280 1
e 278 334 1
e 279 280 1
e 279 281 1
e 279 376 1
e 280 281 1
e 280 282 1
e 280 457 1
e 280 483 1
e 281 282 1
e 281 283 1
e 281 288 1
e 281 405 1
e 282 283 1
e 282 284 1
e 282 490 1
e 282 336 1
e 283 284 1
e 283 285 1
e 283 326 1
e 283 329 1
e 284 285 1
e 284 286 1
e 285 286 1
e 285 287 1
e 285 373 1
e 285 293 1
e 286 287 1
e 286 288 1
e 286 491 1
e 286 418 1
e 286 485 1
e 286 490 1
e 287 288 1
e 287 289 1
e 288 289 1
e 288 290 1
e 289 290 1
e 289 291 1
e 289 425 1
e 290 291 1
e 290 292 1
e 291 292 1
e 291 293 1
e 291 345 1
e 291 297 1
e 292 293 1
e 292 294 1
e 292 426 1
e 293 294 1
e 293 295 1
e 293 429 1
e 293 393 1
e 293 423 1
e 294 295 1
e 294 296 1
e 294 419 1
e 295 296 1
e 295 297 1
e 295 411 1
e 296 297 1
e 296 298 1
e 297 298 1
e 297 299 1
e 297 368 1
e 297 415 1
e 298 299 1
e 298 300 1
e 299 300 1
e 299 301 1
e 299 482 1
e 299 316 1
e 300 301 1
e 300 302 1
e 301 302 1
e 301 303 1
e 302 303 1
e 302 304 1
e 303 304 1
e 303 305 1
e 303 349 1
e 303 371 1
e 304 305 1
e 304 306 1
e 304 359 1
e 305 306 1
e 305 307 1
e 306 307 1
e 306 308 1
e 306 409 1
e 307 308 1
e 307 309 1
e 307 358 1
e 308 309 1
e 308 310 1
e 309 310 1
e 309 311 1
e 309 400 1
e 309 452 1
e 310 311 1
e 310 312 1
e 310 339 1
e 311 312 1
e 311 313 1
e 311 370 1
e 311 480 1
e 312 313 1
e 312 314 1
e 312 471 1
e 312 435 1
e 313 314 1
e 313 315 1
e 314 315 1
e 314 316 1
e 315 316 1
e 315 317 1
e 316 317 1
e 316 318 1
e 317 318 1
e 317 319 1
e 317 411 1
e 318 319 1
e 318 320 1
e 318 342 1
e 318 441 1
e 319 320 1
e 319 321 1
e 320 321 1
e 320 322 1
e 321 322 1
e 321 323 1
e 322 323 1
e 322 324 1
e 322 492 1
e 323 324 1
e 323 325 1
e 323 433 1
e 323 412 1
e 324 325 1
e 324 326 1
e 324 352 1
e 324 478 1
e 325 326 1
e 325 327 1
e 325 430 1
e 326 327 1
e 326 328 1
e 326 465 1
e 326 363 1
e 327 328 1
e 327 329 1
e 328 329 1
e 328 330 1
e 328 439 1
e 329 330 1
e 329 331 1
e 330 331 1
e 330 332 1
e 330 359 1
e 331 332 1
e 331 333 1
e 331 493 1
e 332 333 1
e 332 334 1
e 332 436 1
e 333 334 1
e 333 335 1
e 333 449 1
e 334 335 1
e 334 336 1
e 334 447 1
e 335 336 1
e 335 337 1
e 335 454 1
e 336 337 1
e 336 338 1
e 337 338 1
e 337 339 1
e 337 359 1
e 338 339 1
e 338 340 1
e 339 340 1
e 339 341 1
e 340 341 1
e 340 342 1
e 341 342 1
e 341 343 1
e 342 343 1
e 342 344 1
e 343 344 1
e 343 345 1
e 344 345 1
e 344 346 1
e 345 346 1
e 345 347 1
e 346 347 1
e 346 348 1
e 347 348 1
e 347 349 1
e 348 349 1
e 348 350 1
e 349 350 1
e 349 351 1
e 349 355 1
e 350 351 1
e 350 352 1
e 350 380 1
e 351 352 1
e 351 353 1
e 352 353 1
e 352 354 1
e 352 456 1
e 353 354 1
e 353 355 1
e 354 355 1
e 354 356 1
e 355 356 1
e 355 357 1
e 355 484 1
e 356 357 1
e 356 358 1
e 356 366 1
e 357 358 1
e 357 359 1
e 357 499 1
e 358 359 1
e 358 360 1
e 359 360 1
e 359 361 1
e 360 361 1
e 360 362 1
e 360 485 1
e 361 362 1
e 361 363 1
e 361 443 1
e 362 363 1
e 362 364 1
e 362 436 1
e 363 364 1
e 363 365 1
e 363 438 1
e 363 487 1
e 364 365 1
e 364 366 1
e 364 451 1
e 365 366 1
e 365 367 1
e 365 465 1
e 366 367 1
e 366 368 1
e 367 368 1
e 367 369 1
e 367 393 1
e 368 369 1
e 368 370 1
e 368 408 1
e 369 370 1
e 369 371 1
e 370 371 1
e 370 372 1
e 371 372 1
e 371 373 1
e 372 373 1
e 372 374 1
e 372 417 1
e 373 374 1
e 373 375 1
e 373 390 1
e 374 375 1
e 374 376 1
e 375 376 1
e 375 377 1
e 375 440 1
e 376 377 1
e 376 378 1
e 376 379 1
e 376 429 1
e 377 378 1
e 377 379 1
e 377 458 1
e 378 379 1
e 378 380 1
e 378 411 1
e 379 380 1
e 379 381 1
e 379 397 1
e 380 381 1
e 380 382 1
e 380 412 1
e 381 382 1
e 381 383 1
e 381 393 1
e 382 383 1
e 382 384 1
e 383 384 1
e 383 385 1
e 384 385 1
e 384 386 1
e 384 492 1
e 385 386 1
e 385 387 1
e 385 496 1
e 386 387 1
e 386 388 1
e 387 388 1
e 387 389 1
e 388 389 1
e 388 390 1
e 389 390 1
e 389 391 1
e 389 470 1
e 390 391 1
e 390 392 1
e 390 497 1
e 390 460 1
e 391 392 1
e 391 393 1
e 392 393 1
e 392 394 1
e 392 445 1
e 393 394 1
e 393 395 1
e 394 395 1
e 394 396 1
e 395 396 1
e 395 397 1
e 396 397 1
e 396 398 1
e 397 398 1
e 397 399 1
e 397 438 1
e 398 399 1
e 398 400 1
e 398 493 1
e 399 400 1
e 399 401 1
e 400 401 1
e 400 402 1
e 401 402 1
e 401 403 1
e 402 403 1
e 402 404 1
e 402 432 1
e 403 404 1
e 403 405 1
e 404 405 1
e 404 406 1
e 405 406 1
e 405 407 1
e 406 407 1
e 406 408 1
e 407 408 1
e 407 409 1
e 408 409 1
e 408 410 1
e 409 410 1
e 409 411 1
e 410 411 1
e 410 412 1
e 410 472 1
e 411 412 1
e 411 413 1
e 411 484 1
e 412 413 1
e 412 414 1
e 412 487 1
e 413 414 1
e 413 415 1
e 414 415 1
e 414 416 1
e 414 456 1
e 414 495 1
e 415 416 1
e 415 417 1
e 416 417 1
e 416 418 1
e 417 418 1
e 417 419 1
e 417 481 1
e 418 419 1
e 418 420 1
e 419 420 1
e 419 421 1
e 420 421 1
e 420 422 1
e 421 422 1
e 421 423 1
e 422 423 1
e 422 424 1
e 422 484 1
e 423 424 1
e 423 425 1
e 424 425 1
e 424 426 1
e 425 426 1
e 425 427 1
e 426 427 1
e 426 428 1
e 426 498 1
e 427 428 1
e 427 429 1
e 428 429 1
e 428 430 1
e 429 430 1
e 429 431 1
e 430 431 1
e 430 432 1
e 431 432 1
e 431 433 1
e 432 433 1
e 432 434 1
e 433 434 1
e 433 435 1
e 434 435 1
e 434 436 1
e 435 436 1
e 435 437 1
e 436 437 1
e 436 438 1
e 437 438 1
e 437 439 1
e 437 442 1
e 438 439 1
e 438 440 1
e 439 440 1
e 439 441 1
e 440 441 1
e 440 442 1
e 441 442 1
e 441 443 1
e 442 443 1
e 442 444 1
e 443 444 1
e 443 445 1
e 444 445 1
e 444 446 1
e 445 446 1
e 445 447 1
e 446 447 1
e 446 448 1
e 446 500 1
e 447 448 1
e 447 449 1
e 447 454 1
e 448 449 1
e 448 450 1
e 449 450 1
e 449 451 1
e 449 457 1
e 450 451 1
e 450 452 1
e 451 452 1
e 451 453 1
e 451 486 1
e 452 453 1
e 452 454 1
e 453 454 1
e 453 455 1
e 454 455 1
e 454 456 1
e 455 456 1
e 455 457 1
e 456 457 1
e 456 458 1
e 457 458 1
e 457 459 1
e 458 459 1
e 458 460 1
e 459 460 1
e 459 461 1
e 459 474 1
e 460 461 1
e 460 462 1
e 461 462 1
e 461 463 1
e 462 463 1
e 462 464 1
e 463 464 1
e 463 465 1
e 464 465 1
e 464 466 1
e 465 466 1
e 465 467 1
e 466 467 1
e 466 468 1
e 467 468 1
e 467 469 1
e 468 469 1
e 468 470 1
e 469 470 1
e 469 471 1
e 470 471 1
e 470 472 1
e 471 472 1
e 471 473 1
e 472 473 1
e 472 474 1
e 473 474 1
e 473 475 1
e 474 475 1
e 474 476 1
e 475 476 1
e 475 477 1
e 476 477 1
e 476 478 1
e 477 478 1
e 477 479 1
e 478 479 1
e 478 480 1
e 479 480 1
e 479 481 1
e 480 481 1
e 480 482 1
e 481 482 1
e 481 483 1
e 482 483 1
e 482 484 1
e 483 484 1
e 483 485 1
e 484 485 1
e 484 486 1
e 485 486 1
e 485 487 1
e 486 487 1
e 486 488 1
e 487 488 1
e 487 489 1
e 488 489 1
e 488 490 1
e 489 490 1
e 489 491 1
e 490 491 1
e 490 492 1
e 491 492 1
e 491 493 1
e 492 493 1
e 492 494 1
e 493 494 1
e 493 495 1
e 494 495 1
e 494 496 1
e 495 496 1
e 495 497 1
e 496 497 1
e 496 498 1
e 497 498 1
e 497 499 1
e 498 499 1
e 498 500 1
e 499 500 1